2-dimensional/CL_09_25_09.vbp
2
868 772 
25
143 224 30
301 195 72
278 269 4
139 110 88
353 388 54
285 367 64
303 314 90
272 297 26
160 182 94
334 236 28
359 225 72
203 315 49
232 175 54
313 169 19
113 166 28
298 131 61
135 132 84
191 334 23
232 105 67
125 111 53
136 220 54
333 396 16
281 109 9
249 123 54
301 105 77
