2-dimensional/CL_09_25_09.txt
868 772 
0 30 143 224 
1 72 301 195 
2 4 278 269 
3 88 139 110 
4 54 353 388 
5 64 285 367 
6 90 303 314 
7 26 272 297 
8 94 160 182 
9 28 334 236 
10 72 359 225 
11 49 203 315 
12 54 232 175 
13 19 313 169 
14 28 113 166 
15 61 298 131 
16 84 135 132 
17 23 191 334 
18 67 232 105 
19 53 125 111 
20 54 136 220 
21 16 333 396 
22 9 281 109 
23 54 249 123 
24 77 301 105 
